130921
16
15
13
14
12
11
17
18
37
36
35
34
40
41
60
59
58
57
63
64
62
61
55
56
51
66
65
50
49
52
53
54
42
43
28
29
30
31
19
20
5
6
7
8
9
10
4
3
2
1
23
22
21
25
24
46
45
44
48
47
69
68
67
70
71
72
73
39
38
32
33
27
26
75
0
74
